NAME: rue_15_1
TYPE: TSP
DIMENSION: 15
EDGE_WEIGHT_TYPE: EUC_2D
NODE_COORD_SECTION
1 10 89
2 16 63
3 65 34
4 29 73
5 90 79
6 94 50
7 30 52
8 9 55
9 74 78
10 1 70
11 41 14
12 37 26
13 17 14
14 12 93
15 55 87
